benchmarks_vrp/CMT12/min_c/CMT12_1.vrp
NAME: CMT12_1
TYPE: CVRP
COMMENT: 819.56 - Cluster Nr.1
DIMENSION: 12
CAPACITY: 200
EDGE_WEIGHT_TYPE: EUC_2D
NODE_COORD_TYPE: TWOD_COORDS
NODE_COORD_SECTION: 
8 30 52
5 23 52
11 40 50
4 20 55
12 23 55
3 28 52
6 25 52
9 30 50
1 28 55
10 25 55
2 20 50
7 25 50
DEPOT_SECTION: 
11
-1
DEMAND_SECTION: 
6 40
12 20
1 10
3 20
10 10
8 20
4 10
5 10
9 10
7 10
2 10
11 0
EOF
