benchmarks_vrp/CMT12/min_c/CMT12_1.tour
NAME: CMT12_1 solution
TYPE: TOUR
TOUR_SECTION:
11 8 3 1 10 12 4 2 5 6 7 9 -1
-1
EOF